137
100
9
13
4
22
7
17
11
5
3
2
5
6
6
2
6
5
7
13
5
21
5
22
5
23
23
5
21
23
9
14
2
4
2
16
6
18
8
15
16
13
10
8
7
10
3
21
20
1
13
12
2
24
22
14
20
2
4
4
9
10
6
2
6
5
8
14
12
8
3
21
7
1
21
15
5
6
1
18
19
9
23
8
9
3
4
22
11
11
9
6
22
24
6
21
6
5
7
8
11
21
21
1
25
12
15
23
22
1
21
25
2
2
8
18
7
8
1
2
9
1
16
1
14
22
14
14
8
8
12
15
14
17
6
14
3
21
18
